Version identifier: 22.1.1.0 | 2022-11-28 | 9160aff4d
CPXPARAM_ClockType                               1
CPXPARAM_Read_DataCheck                          1
CPXPARAM_Threads                                 1
CPXPARAM_TimeLimit                               7200
CPXPARAM_MIP_Tolerances_AbsMIPGap                0
CPXPARAM_MIP_Tolerances_MIPGap                   0
CPXPARAM_MIP_Tolerances_Integrality              0
Tried aggregator 2 times.
MIP Presolve eliminated 4567 rows and 9 columns.
MIP Presolve modified 6077 coefficients.
Aggregator did 3036 substitutions.
Reduced MIP has 234404 rows, 22002 columns, and 1248349 nonzeros.
Reduced MIP has 22002 binaries, 0 generals, 0 SOSs, and 0 indicators.
Presolve time = 3.98 sec. (2239.84 ticks)
Probing time = 0.04 sec. (16.85 ticks)
Tried aggregator 1 time.
Detecting symmetries...
Reduced MIP has 234404 rows, 22002 columns, and 1248349 nonzeros.
Reduced MIP has 22002 binaries, 0 generals, 0 SOSs, and 0 indicators.
Presolve time = 3.43 sec. (1917.36 ticks)
Probing time = 0.04 sec. (16.85 ticks)
Clique table members: 183169.
MIP emphasis: balance optimality and feasibility.
MIP search method: dynamic search.
Parallel mode: none, using 1 thread.
Root relaxation solution time = 93.55 sec. (29710.78 ticks)

        Nodes                                         Cuts/
   Node  Left     Objective  IInf  Best Integer    Best Bound    ItCnt     Gap

      0     0    24667.5000 10626                  24667.5000    46906         
      0     0    19614.5061  9273                  Cuts: 3221   252487         

Zero-half cuts applied:  5056
Gomory fractional cuts applied:  102

Root node processing (before b&c):
  Real time             = 7200.28 sec. (1379671.46 ticks)
Sequential b&c:
  Real time             =    0.00 sec. (0.00 ticks)
                          ------------
Total (root+branch&cut) = 7200.28 sec. (1379671.46 ticks)
Solution is infeasible.

---------------------
@@@ MIP_time_limit_infeasible
Traceback (most recent call last):
  File "/scratch/scherif/DiverseSAT-journal_sup/DiverseSAT_Supplementary_Experiments/experiment-1/cplex/jobs/../solvers/CPLEX-BIN-SE.py", line 134, in <module>
    print(f">>> Benchmark {os.path.basename(cnf_file)} k {k} OPT {int(prob.solution.get_objective_value())}"
  File "/users/scherif/.local/lib/python3.9/site-packages/cplex/_internal/_subinterfaces.py", line 7211, in get_objective_value
    return CPX_PROC.getobjval(self._env._e, self._cplex._lp)
  File "/users/scherif/.local/lib/python3.9/site-packages/cplex/_internal/_procedural.py", line 2055, in getobjval
    check_status(env, status)
  File "/users/scherif/.local/lib/python3.9/site-packages/cplex/_internal/_procedural.py", line 249, in __call__
    raise CplexSolverError(error_string, env, status)
cplex.exceptions.errors.CplexSolverError: CPLEX Error  1217: No solution exists.
